SumColouring/JavaBacktracker/RandomInstances/18_0.05_3.col
c File: instances/18_0.05_3.col
c
c Description: Random graph of size 18 vertices and P(0.05) of edges between any two vertices.
p col 18 153
e 4 10
e 7 17
e 12 16